
&CONTROL
                       title = 'Li3Sb'
                 calculation = 'vc-relax'
                restart_mode = 'from_scratch'
                      outdir = './Li3Sb'
                  pseudo_dir = '/home/rajeshprashanth/pseudo/'
                     tstress = .true.
                     tprnfor = .true.
                   verbosity = 'high'
               etot_conv_thr = 1.0D-6
               forc_conv_thr = 1.0D-5
/

&SYSTEM
                       ibrav = 0
                         nat = 4
                        ntyp = 2
                        nbnd = 16
                     ecutwfc = 80
                     ecutrho = 640
                 occupations = 'smearing',
                    smearing = 'marzari-vanderbilt',
                     degauss = 0.02
/

&ELECTRONS
                    conv_thr = 1.0D-8
            diago_cg_maxiter = 5000
            electron_maxstep = 5000
             diagonalization = 'cg'
/

&IONS
                ion_dynamics = 'bfgs'
/

&CELL
                       press = 0.0D0
              press_conv_thr = 0.1D0
/

ATOMIC_SPECIES
Li 	 6.9410 	     Li.pbe-sl-rrkjus_psl.1.0.0.UPF
Sb 	 121.76 	 Sb.pbe-n-rrkjus_psl.1.0.0.UPF

ATOMIC_POSITIONS (crystal)
  Li      0.50000000000000   0.50000000000000   0.50000000000000
  Li      0.75000000000000   0.75000000000000   0.75000000000000
  Li      0.25000000000000   0.25000000000000   0.25000000000000
  Sb      0.00000000000000   0.00000000000000   0.00000000000000   

CELL_PARAMETERS (angstrom)
   3.28087700000000   0.00000000000000   3.28087700000000
   3.28087700000000   3.28087700000000   0.00000000000000
   0.00000000000000   3.28087700000000   3.28087700000000

K_POINTS {automatic}
 7 7 7 0 0 0
